NAME : XML100_1115_19
DIMENSION : 101
NB_CLUSTERS : 20
CLUSTERING_ALG : KMeans
CLUSTERING_PARAMS : k(19)
CLUSTERS
1 0
2 8 27 29 60 63
3 15 37 45 55 61 75 77 81
4 25 40 42 48 59 72 93 98
5 20 24 33 54 65 87 89
6 43 68
7 3 10 11 18 74 80
8 5 14 21
9 12 22 26 64 73 92 96 100
10 13 19 52 57 66 67 76
11 2 6 17 32 36 38 44 49 62 71
12 31 34 39 50
13 70 84 86 99
14 4 28 97
15 1 16 58 79 94
16 23 35 47 91
17 7 9 30 82
18 46 78 88
19 41 51 53 90
20 56 69 83 85 95
EOF